p tw 786 1455
1 118
1 419
1 420
1 543
1 605
1 606
1 691
1 692
2 369
2 370
3 748
3 749
4 333
4 334
4 782
4 783
5 448
5 449
6 346
6 347
6 558
6 559
7 711
7 712
8 632
8 633
9 434
9 435
9 559
9 560
9 617
9 618
10 334
10 335
11 687
11 688
12 659
12 660
13 675
13 676
13 730
13 731
14 458
14 459
15 347
15 348
15 560
15 561
15 618
15 619
16 348
16 349
17 484
17 485
18 397
18 398
18 571
18 572
18 671
18 672
19 362
19 363
20 725
20 726
21 746
21 747
22 441
22 442
23 726
23 727
24 450
24 451
25 368
25 369
25 643
25 644
26 344
26 345
27 502
27 503
28 366
28 367
28 642
28 643
29 534
29 535
30 409
30 410
30 592
30 593
31 729
31 730
32 695
32 696
33 717
33 718
34 367
34 368
35 392
35 393
36 377
36 378
36 547
36 548
36 650
36 651
37 312
37 313
37 505
37 506
37 764
37 765
38 713
38 714
39 85
39 786
40 719
40 720
41 415
41 416
41 537
41 538
42 703
42 704
43 325
43 326
43 773
43 774
44 477
44 478
45 329
45 330
45 777
45 778
46 332
46 333
46 781
46 782
47 718
47 719
48 512
48 513
48 684
48 685
49 307
49 308
50 531
50 532
51 350
51 351
52 738
52 739
53 412
53 413
53 596
53 597
54 511
54 512
55 468
55 469
56 351
56 352
57 302
57 303
57 756
57 757
58 345
58 346
58 557
58 558
58 616
58 617
59 710
59 711
60 485
60 486
61 420
61 421
62 698
62 699
63 446
63 447
64 315
64 316
64 431
64 432
64 767
64 768
65 449
65 450
66 341
66 342
66 609
66 610
67 708
67 709
68 455
68 456
68 578
68 579
68 634
68 635
69 456
69 457
69 765
69 766
70 337
70 338
70 416
70 417
70 785
70 786
71 432
71 433
72 621
72 622
73 740
73 741
74 318
74 319
74 733
74 734
75 310
75 311
75 761
75 762
76 516
76 517
77 396
77 397
78 444
78 445
79 775
79 776
80 697
80 698
81 476
81 477
82 460
82 461
82 583
82 584
83 471
83 472
84 676
84 677
85 786
86 305
86 306
86 731
86 732
86 760
86 761
87 212
87 755
88 493
88 494
88 666
88 667
89 743
89 744
90 381
90 382
91 463
91 464
91 589
91 590
92 462
92 463
92 736
92 737
92 770
92 771
93 352
93 353
94 741
94 742
95 472
95 473
96 306
96 307
97 435
97 436
97 715
97 716
98 486
98 487
98 556
98 557
99 335
99 336
99 515
99 516
99 783
99 784
100 443
100 444
100 572
100 573
101 509
101 510
102 404
102 405
102 582
102 583
102 679
102 680
103 459
103 460
103 584
103 585
104 699
104 700
105 490
105 491
106 440
106 441
106 624
106 625
107 389
107 390
107 563
107 564
107 660
107 661
108 488
108 489
109 694
109 695
110 365
110 366
110 598
110 599
110 641
110 642
111 426
111 427
112 727
112 728
113 716
113 717
114 324
114 325
114 772
114 773
115 483
115 484
115 519
115 520
115 652
115 653
116 480
116 481
116 539
116 540
116 646
116 647
117 525
117 526
118 143
118 421
118 422
118 543
118 607
118 692
118 693
119 474
119 475
119 535
119 536
119 644
119 645
120 469
120 470
120 599
120 600
120 640
120 641
121 530
121 531
122 751
122 752
123 489
123 490
123 662
123 663
124 538
124 539
125 375
125 376
126 513
126 514
126 600
126 601
127 428
127 429
127 549
127 550
127 613
127 614
128 355
128 356
128 568
128 569
129 395
129 396
130 778
130 779
131 439
131 440
132 429
132 430
132 551
132 552
132 615
132 616
133 314
133 315
134 749
134 750
135 636
135 637
136 503
136 504
137 311
137 312
137 763
137 764
138 709
138 710
139 722
139 723
140 401
140 402
141 382
141 383
142 686
142 687
143 232
143 423
143 424
143 607
143 693
144 391
144 392
145 373
145 374
146 319
146 320
146 734
146 735
147 754
147 755
148 745
148 746
149 422
149 423
150 299
150 339
151 504
151 505
152 466
152 467
152 591
152 592
153 457
153 458
154 753
154 754
155 308
155 309
155 705
155 706
156 706
156 707
157 353
157 354
157 565
157 566
157 623
157 624
157 723
157 724
158 445
158 446
159 518
159 519
160 317
160 318
160 768
160 769
161 482
161 483
161 651
161 652
162 384
162 385
162 656
162 657
163 496
163 497
163 566
163 567
163 667
163 668
164 356
164 357
164 628
164 629
165 385
165 386
165 554
165 555
166 769
166 770
167 739
167 740
168 340
168 341
168 544
168 545
168 608
168 609
169 622
169 623
170 506
170 507
171 750
171 751
172 465
172 466
173 388
173 389
173 658
173 659
174 526
174 527
175 403
175 404
175 580
175 581
176 372
176 373
176 603
176 604
176 647
176 648
177 728
177 729
178 712
178 713
179 383
179 384
179 553
179 554
179 655
179 656
180 627
180 628
181 461
181 462
181 586
181 587
181 637
181 638
182 536
182 537
182 665
182 666
183 406
183 407
184 522
184 523
185 430
185 431
186 343
186 344
186 548
186 549
186 611
186 612
187 304
187 305
187 612
187 613
188 433
188 434
189 357
189 358
189 576
189 577
189 630
189 631
190 677
190 678
191 524
191 525
192 405
192 406
192 581
192 582
193 393
193 394
194 316
194 317
195 358
195 359
195 577
195 578
196 342
196 343
196 546
196 547
196 610
196 611
197 361
197 362
197 579
197 580
197 635
197 636
198 313
198 314
198 766
198 767
199 338
199 339
200 701
200 702
201 418
201 419
201 604
201 605
201 689
201 690
202 759
202 760
203 507
203 508
203 529
203 530
204 386
204 387
204 657
204 658
205 704
205 705
206 721
206 722
207 532
207 533
208 752
208 753
209 424
209 425
209 696
209 697
209 757
209 758
210 414
210 415
210 601
210 602
210 685
210 686
211 451
211 452
211 629
211 630
212 755
213 447
213 448
213 574
213 575
213 626
213 627
214 363
214 364
214 587
214 588
214 638
214 639
215 364
215 365
215 593
215 594
216 322
216 323
217 648
217 649
218 497
218 498
218 569
218 570
218 669
218 670
219 442
219 443
220 478
220 479
221 379
221 380
222 744
222 745
223 387
223 388
224 309
224 310
224 762
224 763
225 399
225 400
226 323
226 324
226 771
226 772
227 303
227 304
227 700
227 701
227 758
227 759
228 475
228 476
228 602
228 603
228 645
228 646
229 673
229 674
230 737
230 738
231 402
231 403
231 678
231 679
232 239
232 517
232 693
233 540
233 541
234 501
234 502
235 436
235 437
235 561
235 562
235 619
235 620
236 370
236 371
237 327
237 328
238 376
238 377
238 649
238 650
239 517
239 606
239 607
239 690
239 691
240 349
240 350
240 562
240 563
240 620
240 621
241 411
241 412
242 330
242 331
242 720
242 721
242 779
242 780
243 425
243 426
243 545
243 546
244 470
244 471
244 597
244 598
245 452
245 453
245 521
245 522
246 359
246 360
247 321
247 322
248 328
248 329
248 438
248 439
248 776
248 777
249 527
249 528
250 390
250 391
250 661
250 662
251 453
251 454
252 498
252 499
252 570
252 571
252 670
252 671
253 374
253 375
254 491
254 492
254 564
254 565
254 663
254 664
255 735
255 736
256 481
256 482
257 528
257 529
258 614
258 615
259 542
259 543
260 500
260 501
260 575
260 576
260 674
260 675
261 631
261 632
262 320
262 321
262 487
262 488
262 555
262 556
263 408
263 409
263 590
263 591
264 336
264 337
264 494
264 495
264 784
264 785
265 400
265 401
266 378
266 379
266 550
266 551
266 654
266 655
267 479
267 480
268 514
268 515
269 742
269 743
270 398
270 399
271 533
271 534
272 653
272 654
273 492
273 493
274 464
274 465
275 747
275 748
276 326
276 327
276 774
276 775
277 437
277 438
278 495
278 496
278 567
278 568
278 724
278 725
279 499
279 500
279 573
279 574
279 672
279 673
280 331
280 332
280 413
280 414
280 780
280 781
281 714
281 715
282 467
282 468
282 594
282 595
282 639
282 640
283 417
283 418
283 688
283 689
284 427
284 428
285 732
285 733
286 508
286 509
286 588
286 589
286 681
286 682
287 668
287 669
288 454
288 455
289 407
289 408
289 585
289 586
289 680
289 681
290 410
290 411
291 520
291 521
292 707
292 708
293 394
293 395
293 664
293 665
294 380
294 381
294 552
294 553
295 360
295 361
295 523
295 524
295 633
295 634
296 473
296 474
297 354
297 355
297 625
297 626
298 510
298 511
298 595
298 596
298 682
298 683
299 339
299 371
299 372
299 541
299 542
300 702
300 703
301 683
301 684
302 303
303 304
304 305
305 306
306 307
307 308
308 309
309 310
310 311
311 312
312 313
313 314
314 315
315 316
316 317
317 318
318 319
319 320
320 321
321 322
322 323
323 324
324 325
325 326
326 327
327 328
328 329
329 330
330 331
331 332
332 333
333 334
334 335
335 336
336 337
337 338
338 339
340 341
341 342
342 343
343 344
344 345
345 346
346 347
347 348
348 349
349 350
350 351
351 352
352 353
353 354
354 355
355 356
356 357
357 358
358 359
359 360
360 361
361 362
362 363
363 364
364 365
365 366
366 367
367 368
368 369
369 370
370 371
371 372
372 373
373 374
374 375
375 376
376 377
377 378
378 379
379 380
380 381
381 382
382 383
383 384
384 385
385 386
386 387
387 388
388 389
389 390
390 391
391 392
392 393
393 394
394 395
395 396
396 397
397 398
398 399
399 400
400 401
401 402
402 403
403 404
404 405
405 406
406 407
407 408
408 409
409 410
410 411
411 412
412 413
413 414
414 415
415 416
416 417
417 418
418 419
419 420
420 421
421 422
422 423
423 424
424 425
425 426
426 427
427 428
428 429
429 430
430 431
431 432
432 433
433 434
434 435
435 436
436 437
437 438
438 439
439 440
440 441
441 442
442 443
443 444
444 445
445 446
446 447
447 448
448 449
449 450
450 451
451 452
452 453
453 454
454 455
455 456
456 457
457 458
458 459
459 460
460 461
461 462
462 463
463 464
464 465
465 466
466 467
467 468
468 469
469 470
470 471
471 472
472 473
473 474
474 475
475 476
476 477
477 478
478 479
479 480
480 481
481 482
482 483
483 484
484 485
485 486
486 487
487 488
488 489
489 490
490 491
491 492
492 493
493 494
494 495
495 496
496 497
497 498
498 499
499 500
500 501
501 502
502 503
503 504
504 505
505 506
506 507
507 508
508 509
509 510
510 511
511 512
512 513
513 514
514 515
515 516
516 517
518 519
519 520
520 521
521 522
522 523
523 524
524 525
525 526
526 527
527 528
528 529
529 530
530 531
531 532
532 533
533 534
534 535
535 536
536 537
537 538
538 539
539 540
540 541
541 542
542 543
544 545
545 546
546 547
547 548
548 549
549 550
550 551
551 552
552 553
553 554
554 555
555 556
556 557
557 558
558 559
559 560
560 561
561 562
562 563
563 564
564 565
565 566
566 567
567 568
568 569
569 570
570 571
571 572
572 573
573 574
574 575
575 576
576 577
577 578
578 579
579 580
580 581
581 582
582 583
583 584
584 585
585 586
586 587
587 588
588 589
589 590
590 591
591 592
592 593
593 594
594 595
595 596
596 597
597 598
598 599
599 600
600 601
601 602
602 603
603 604
604 605
605 606
606 607
608 609
609 610
610 611
611 612
612 613
613 614
614 615
615 616
616 617
617 618
618 619
619 620
620 621
621 622
622 623
623 624
624 625
625 626
626 627
627 628
628 629
629 630
630 631
631 632
632 633
633 634
634 635
635 636
636 637
637 638
638 639
639 640
640 641
641 642
642 643
643 644
644 645
645 646
646 647
647 648
648 649
649 650
650 651
651 652
652 653
653 654
654 655
655 656
656 657
657 658
658 659
659 660
660 661
661 662
662 663
663 664
664 665
665 666
666 667
667 668
668 669
669 670
670 671
671 672
672 673
673 674
674 675
675 676
676 677
677 678
678 679
679 680
680 681
681 682
682 683
683 684
684 685
685 686
686 687
687 688
688 689
689 690
690 691
691 692
692 693
694 695
695 696
696 697
697 698
698 699
699 700
700 701
701 702
702 703
703 704
704 705
705 706
706 707
707 708
708 709
709 710
710 711
711 712
712 713
713 714
714 715
715 716
716 717
717 718
718 719
719 720
720 721
721 722
722 723
723 724
724 725
725 726
726 727
727 728
728 729
729 730
730 731
731 732
732 733
733 734
734 735
735 736
736 737
737 738
738 739
739 740
740 741
741 742
742 743
743 744
744 745
745 746
746 747
747 748
748 749
749 750
750 751
751 752
752 753
753 754
754 755
756 757
757 758
758 759
759 760
760 761
761 762
762 763
763 764
764 765
765 766
766 767
767 768
768 769
769 770
770 771
771 772
772 773
773 774
774 775
775 776
776 777
777 778
778 779
779 780
780 781
781 782
782 783
783 784
784 785
785 786
